AES/1_3_4/ssaes_r1-20_c3_rw1_e4_f0_k1-20_aes_min_box_aes_mc_bidirectional/ExperimentMinisat_r15_k12cnf_2011-10-29-154034/Result
WARNING: for repeatability, setting FPU to use double precision
============================[ Problem Statistics ]=============================
|                                                                             |
|  Number of variables:           876                                         |
|  Number of clauses:            3528                                         |
|  Parse time:                   0.00 s                                       |
|  Eliminated clauses:           0.01 Mb                                      |
|  Simplification time:          0.00 s                                       |
|                                                                             |
=============================[ Search Statistics ]==============================
| Conflicts  |          ORIGINAL         |          LEARNT          | Progress |
|            |    Vars  Clauses Literals |    Limit  Clauses Lit/Cl |          |
================================================================================
|        100 |     600     2736     9144 |     1003      100     12 |  9.589 % |
|        250 |     600     2736     9144 |     1103      250     11 |  9.589 % |
|        475 |     600     2736     9144 |     1213      475     12 |  9.589 % |
|        812 |     600     2736     9144 |     1335      812     12 |  9.589 % |
|       1318 |     600     2736     9144 |     1468     1318     12 |  9.589 % |
===============================================================================
restarts              : 9
conflicts             : 1361           (50417 /sec)
decisions             : 2156           (0.00 % random) (79867 /sec)
propagations          : 95942          (3554066 /sec)
conflict literals     : 16560          (13.42 % deleted)
Memory used           : 8.00 MB
CPU time              : 0.026995 s

SATISFIABLE
